15
1 0 2
2 0 1
2 1 5
3 0 5
3 1 2
3 2 1
4 0 4
4 1 4
4 2 4
4 3 1
5 0 4
5 1 1
5 2 5
5 3 3
5 4 4
6 0 5
6 1 4
6 2 3
6 3 1
6 4 4
6 5 4
7 0 5
7 1 5
7 2 1
7 3 3
7 4 1
7 5 2
7 6 5
8 0 3
8 1 5
8 2 2
8 3 1
8 4 1
8 5 3
8 6 1
8 7 3
9 0 4
9 1 4
9 2 2
9 3 4
9 4 5
9 5 5
9 6 1
9 7 3
9 8 3
10 0 3
10 1 1
10 2 1
10 3 3
10 4 2
10 5 1
10 6 5
10 7 3
10 8 3
10 9 5
11 0 3
11 1 5
11 2 4
11 3 4
11 4 4
11 5 1
11 6 3
11 7 2
11 8 5
11 9 4
11 10 5
12 0 2
12 1 1
12 2 2
12 3 4
12 4 2
12 5 2
12 6 5
12 7 2
12 8 3
12 9 4
12 10 1
12 11 1
13 0 4
13 1 3
13 2 2
13 3 1
13 4 4
13 5 4
13 6 4
13 7 4
13 8 2
13 9 1
13 10 4
13 11 2
13 12 4
14 0 5
14 1 2
14 2 4
14 3 2
14 4 2
14 5 3
14 6 3
14 7 2
14 8 4
14 9 2
14 10 2
14 11 2
14 12 1
14 13 5
